53
13 12 206
12 46 324
46 25 186
25 26 126
26 27 110
27 11 182
11 24 245
24 3 109
3 5 70
5 14 40
14 4 25
4 23 32
23 47 16
47 37 49
37 36 43
36 39 41
39 38 43
38 33 59
33 34 21
34 35 15
35 48 81
48 31 50
31 21 97
21 22 175
22 19 94
19 49 35
49 43 175
43 45 131
45 15 156
15 28 201
28 29 260
29 52 480
52 1 187
1 6 45
6 41 76
41 20 290
20 30 150
30 17 80
17 16 272
16 2 217
2 44 220
44 18 75
18 40 92
40 7 64
7 8 183
8 9 83
9 42 308
42 32 365
32 50 475
50 10 285
10 51 399
51 13 319

